c pcminimize - minimizing a CNF with respect to propagation completeness by iterative removing of absorbed clauses.
c Petr Kucera, 2016-2021
c Version 2.7, revision 59, git hash 4910a71, date 2024-07-16 20:17:42 +0200
p cnf 672 1643
251 -252 0
29 -252 0
139 -253 0
-29 -253 0
252 253 -254 0
124 -255 0
40 -255 0
256 -257 0
-40 -257 0
255 257 -258 0
258 -259 0
125 -259 0
124 -261 0
260 -261 0
261 -262 0
-125 -262 0
259 262 -263 0
263 -264 0
196 -264 0
264 -265 0
65 -265 0
258 -266 0
125 -266 0
266 -268 0
267 -268 0
268 -269 0
-65 -269 0
265 269 -270 0
13 -271 0
-55 -271 0
77 -271 0
112 -271 0
142 -271 0
-191 -271 0
202 -271 0
254 -272 0
270 -272 0
271 -272 0
272 -273 0
43 -273 0
274 -275 0
55 -275 0
112 -276 0
-55 -276 0
275 276 -277 0
277 -278 0
142 -278 0
55 -279 0
274 -279 0
279 -280 0
-142 -280 0
278 280 -281 0
13 -282 0
-191 -282 0
281 -283 0
282 -283 0
283 -284 0
202 -284 0
-13 -285 0
55 -285 0
-142 -285 0
285 -286 0
274 -286 0
286 -288 0
287 -288 0
288 -289 0
-202 -289 0
284 289 -290 0
196 -292 0
291 -292 0
292 -293 0
65 -293 0
125 -294 0
267 -294 0
294 -295 0
-65 -295 0
293 295 -296 0
29 -297 0
40 -297 0
124 -297 0
-139 -297 0
290 -298 0
296 -298 0
297 -298 0
298 -300 0
299 -300 0
300 -301 0
-43 -301 0
273 301 -302 0
-183 -303 0
250 -303 0
302 -304 0
303 -304 0
304 -306 0
305 -306 0
306 -307 0
19 -307 0
13 -308 0
-55 -308 0
77 -308 0
112 -308 0
142 -308 0
-191 -308 0
202 -308 0
250 -308 0
309 -310 0
305 -310 0
254 -311 0
270 -311 0
308 -311 0
310 -311 0
311 -312 0
43 -312 0
305 -313 0
250 -313 0
123 -314 0
-250 -314 0
313 314 -315 0
299 -316 0
309 -316 0
290 -317 0
296 -317 0
315 -317 0
297 -317 0
316 -317 0
317 -318 0
-43 -318 0
312 318 -319 0
319 -320 0
-19 -320 0
307 320 -321 0
-216 -322 0
242 -322 0
322 -323 0
199 -323 0
324 -326 0
325 -326 0
326 -327 0
-199 -327 0
323 327 -328 0
328 -329 0
163 -329 0
242 -330 0
199 -330 0
324 -331 0
-199 -331 0
330 331 -332 0
332 -333 0
-216 -333 0
333 -334 0
-163 -334 0
329 334 -335 0
70 -336 0
154 -336 0
337 -338 0
-154 -338 0
336 338 -339 0
-26 -340 0
28 -340 0
-53 -340 0
74 -340 0
-81 -340 0
106 -340 0
108 -340 0
-119 -340 0
143 -340 0
172 -340 0
-229 -340 0
-233 -340 0
-239 -340 0
245 -340 0
341 -346 0
342 -346 0
343 -346 0
344 -346 0
345 -346 0
321 -347 0
335 -347 0
339 -347 0
340 -347 0
346 -347 0
347 -348 0
195 -348 0
13 -349 0
-191 -349 0
202 -349 0
349 -350 0
142 -350 0
282 -351 0
202 -351 0
-13 -352 0
287 -352 0
352 -353 0
-202 -353 0
351 353 -354 0
354 -355 0
-142 -355 0
350 355 -356 0
-239 -357 0
242 -357 0
357 -358 0
199 -358 0
-242 -359 0
239 -359 0
324 -360 0
-239 -360 0
359 360 -361 0
361 -362 0
-199 -362 0
358 362 -363 0
106 -364 0
172 -364 0
356 -365 0
363 -365 0
364 -365 0
342 -365 0
365 -366 0
74 -366 0
342 -367 0
172 -367 0
120 -368 0
-172 -368 0
367 368 -369 0
-13 -370 0
-142 -370 0
-199 -370 0
-202 -370 0
239 -370 0
-242 -370 0
369 -371 0
370 -371 0
287 -371 0
371 -373 0
372 -373 0
373 -374 0
-74 -374 0
366 374 -375 0
26 -376 0
81 -376 0
-108 -376 0
-216 -376 0
233 -376 0
377 -379 0
345 -379 0
378 -379 0
375 -380 0
339 -380 0
376 -380 0
379 -380 0
380 -381 0
53 -381 0
26 -382 0
81 -382 0
-108 -382 0
382 -383 0
377 -383 0
383 -384 0
233 -384 0
377 -385 0
26 -385 0
-229 -386 0
-26 -386 0
385 386 -387 0
-81 -388 0
108 -388 0
387 -389 0
388 -389 0
389 -390 0
-233 -390 0
384 390 -391 0
74 -392 0
106 -392 0
172 -392 0
-239 -392 0
342 -393 0
345 -393 0
391 -394 0
356 -394 0
335 -394 0
339 -394 0
392 -394 0
393 -394 0
394 -395 0
-53 -395 0
381 395 -396 0
396 -397 0
296 -397 0
397 -398 0
143 -398 0
-13 -399 0
26 -399 0
53 -399 0
65 -399 0
-74 -399 0
81 -399 0
-108 -399 0
120 -399 0
-125 -399 0
-142 -399 0
-172 -399 0
196 -399 0
-199 -399 0
-202 -399 0
-216 -399 0
233 -399 0
239 -399 0
-242 -399 0
377 -400 0
345 -400 0
287 -400 0
378 -400 0
372 -400 0
339 -401 0
399 -401 0
400 -401 0
401 -402 0
-143 -402 0
398 402 -403 0
28 -404 0
29 -404 0
40 -404 0
-43 -404 0
-119 -404 0
124 -404 0
-139 -404 0
299 -405 0
344 -405 0
403 -406 0
315 -406 0
404 -406 0
405 -406 0
406 -407 0
274 -407 0
407 -408 0
55 -408 0
53 -409 0
-199 -409 0
-216 -409 0
-242 -409 0
409 -410 0
378 -410 0
410 -411 0
239 -411 0
-53 -412 0
163 -412 0
-199 -412 0
412 -413 0
324 -413 0
413 -414 0
216 -414 0
332 -416 0
415 -416 0
378 -416 0
416 -417 0
-216 -417 0
414 417 -418 0
418 -419 0
-239 -419 0
411 419 -420 0
26 -421 0
-29 -421 0
43 -421 0
77 -421 0
81 -421 0
-108 -421 0
139 -421 0
233 -421 0
250 -421 0
377 -422 0
305 -422 0
420 -423 0
270 -423 0
421 -423 0
422 -423 0
423 -424 0
119 -424 0
77 -425 0
250 -425 0
270 -426 0
254 -426 0
425 -426 0
305 -426 0
426 -427 0
43 -427 0
296 -428 0
315 -428 0
297 -428 0
299 -428 0
428 -429 0
-43 -429 0
427 429 -430 0
26 -431 0
81 -431 0
-108 -431 0
-216 -431 0
233 -431 0
377 -432 0
378 -432 0
363 -433 0
431 -433 0
432 -433 0
433 -434 0
53 -434 0
391 -435 0
335 -435 0
-239 -435 0
435 -436 0
-53 -436 0
434 436 -437 0
430 -438 0
437 -438 0
438 -439 0
-119 -439 0
424 439 -440 0
440 -441 0
339 -441 0
441 -442 0
28 -442 0
26 -443 0
-29 -443 0
43 -443 0
77 -443 0
81 -443 0
-108 -443 0
119 -443 0
139 -443 0
-154 -443 0
233 -443 0
250 -443 0
377 -444 0
337 -444 0
305 -444 0
420 -445 0
270 -445 0
443 -445 0
444 -445 0
445 -446 0
-28 -446 0
442 446 -447 0
13 -448 0
74 -448 0
106 -448 0
112 -448 0
142 -448 0
143 -448 0
172 -448 0
-191 -448 0
202 -448 0
344 -449 0
342 -449 0
345 -449 0
447 -450 0
448 -450 0
449 -450 0
450 -451 0
-55 -451 0
408 451 -452 0
452 -453 0
-19 -454 0
245 -454 0
453 -455 0
454 -455 0
455 -456 0
183 -456 0
377 -457 0
378 -457 0
375 -458 0
431 -458 0
457 -458 0
458 -459 0
53 -459 0
74 -460 0
106 -460 0
172 -460 0
-239 -460 0
391 -461 0
356 -461 0
335 -461 0
460 -461 0
342 -461 0
461 -462 0
-53 -462 0
459 462 -463 0
463 -464 0
296 -464 0
464 -465 0
143 -465 0
-13 -466 0
26 -466 0
53 -466 0
65 -466 0
-74 -466 0
81 -466 0
-108 -466 0
120 -466 0
-125 -466 0
-142 -466 0
-172 -466 0
196 -466 0
-199 -466 0
-202 -466 0
-216 -466 0
233 -466 0
239 -466 0
-242 -466 0
377 -467 0
372 -467 0
287 -467 0
378 -467 0
466 -468 0
467 -468 0
468 -469 0
-143 -469 0
465 469 -470 0
250 -471 0
305 -471 0
471 -472 0
19 -472 0
315 -473 0
-19 -473 0
472 473 -474 0
299 -475 0
344 -475 0
470 -476 0
474 -476 0
339 -476 0
404 -476 0
475 -476 0
476 -477 0
274 -477 0
477 -478 0
55 -478 0
339 -479 0
28 -479 0
-154 -480 0
337 -480 0
480 -481 0
-28 -481 0
479 481 -482 0
377 -484 0
305 -484 0
483 -484 0
420 -485 0
263 -485 0
482 -485 0
421 -485 0
484 -485 0
485 -486 0
119 -486 0
305 -487 0
483 -487 0
254 -488 0
263 -488 0
425 -488 0
487 -488 0
488 -489 0
43 -489 0
474 -490 0
297 -490 0
291 -490 0
490 -491 0
299 -491 0
491 -492 0
-43 -492 0
489 492 -493 0
493 -494 0
437 -494 0
339 -494 0
28 -494 0
494 -495 0
-119 -495 0
486 495 -496 0
496 -497 0
196 -497 0
497 -498 0
65 -498 0
377 -499 0
305 -499 0
483 -499 0
420 -500 0
258 -500 0
482 -500 0
421 -500 0
499 -500 0
500 -501 0
119 -501 0
305 -502 0
483 -502 0
254 -503 0
258 -503 0
425 -503 0
502 -503 0
503 -504 0
43 -504 0
474 -505 0
297 -505 0
505 -506 0
299 -506 0
506 -507 0
-43 -507 0
504 507 -508 0
508 -509 0
437 -509 0
339 -509 0
28 -509 0
509 -510 0
-119 -510 0
501 510 -511 0
511 -512 0
125 -512 0
512 -513 0
267 -513 0
513 -514 0
-65 -514 0
498 514 -515 0
13 -516 0
74 -516 0
106 -516 0
112 -516 0
142 -516 0
143 -516 0
172 -516 0
-191 -516 0
202 -516 0
344 -517 0
342 -517 0
515 -518 0
516 -518 0
517 -518 0
518 -519 0
-55 -519 0
478 519 -520 0
520 -521 0
245 -521 0
81 -522 0
-108 -522 0
233 -522 0
363 -523 0
522 -523 0
523 -524 0
53 -524 0
81 -525 0
-108 -525 0
525 -526 0
233 -526 0
388 -527 0
-233 -527 0
526 527 -528 0
528 -529 0
332 -529 0
-239 -529 0
529 -530 0
-53 -530 0
524 530 -531 0
13 -532 0
74 -532 0
106 -532 0
143 -532 0
172 -532 0
-191 -532 0
531 -533 0
296 -533 0
532 -533 0
342 -533 0
533 -535 0
534 -535 0
535 -536 0
202 -536 0
106 -537 0
143 -537 0
172 -537 0
531 -538 0
296 -538 0
537 -538 0
342 -538 0
538 -539 0
74 -539 0
196 -540 0
65 -540 0
267 -541 0
-65 -541 0
540 541 -542 0
542 -543 0
369 -543 0
143 -543 0
543 -544 0
125 -544 0
369 -545 0
143 -545 0
120 -546 0
-172 -546 0
546 -547 0
-143 -547 0
545 547 -548 0
65 -549 0
196 -549 0
548 -550 0
549 -550 0
550 -551 0
-125 -551 0
544 551 -552 0
53 -553 0
81 -553 0
-108 -553 0
-199 -553 0
233 -553 0
239 -553 0
-242 -553 0
552 -554 0
553 -554 0
554 -555 0
372 -555 0
555 -556 0
-74 -556 0
539 556 -557 0
-13 -558 0
-142 -558 0
557 -559 0
558 -559 0
559 -560 0
287 -560 0
560 -561 0
-202 -561 0
536 561 -562 0
299 -563 0
344 -563 0
562 -564 0
339 -564 0
404 -564 0
563 -564 0
564 -565 0
274 -565 0
565 -566 0
55 -566 0
357 -567 0
415 -567 0
567 -568 0
199 -568 0
53 -569 0
-242 -569 0
569 -570 0
239 -570 0
324 -571 0
415 -571 0
571 -572 0
-239 -572 0
570 572 -573 0
573 -574 0
-199 -574 0
568 574 -575 0
-29 -576 0
43 -576 0
77 -576 0
81 -576 0
-108 -576 0
139 -576 0
233 -576 0
270 -577 0
575 -577 0
576 -577 0
577 -578 0
119 -578 0
251 -579 0
43 -579 0
-139 -580 0
-43 -580 0
579 580 -581 0
581 -582 0
29 -582 0
43 -583 0
139 -583 0
583 -584 0
-29 -584 0
582 584 -585 0
585 -586 0
77 -586 0
29 -587 0
-43 -587 0
-139 -587 0
587 -588 0
-77 -588 0
586 588 -589 0
589 -590 0
296 -590 0
124 -590 0
590 -591 0
40 -591 0
256 -592 0
125 -592 0
124 -593 0
-125 -593 0
592 593 -594 0
594 -595 0
196 -595 0
595 -596 0
65 -596 0
125 -597 0
256 -597 0
597 -598 0
267 -598 0
598 -599 0
-65 -599 0
596 599 -600 0
43 -601 0
77 -601 0
600 -602 0
254 -602 0
601 -602 0
602 -603 0
-40 -603 0
591 603 -604 0
604 -605 0
531 -605 0
605 -606 0
-119 -606 0
578 606 -607 0
607 -608 0
339 -608 0
608 -609 0
28 -609 0
-29 -610 0
43 -610 0
77 -610 0
81 -610 0
-108 -610 0
119 -610 0
139 -610 0
-154 -610 0
233 -610 0
270 -611 0
575 -611 0
610 -611 0
337 -611 0
611 -612 0
-28 -612 0
609 612 -613 0
344 -614 0
342 -614 0
613 -615 0
516 -615 0
614 -615 0
615 -616 0
-55 -616 0
566 616 -617 0
19 -618 0
26 -618 0
-216 -618 0
229 -618 0
250 -618 0
617 -619 0
618 -619 0
305 -619 0
619 -620 0
378 -620 0
620 -621 0
-245 -621 0
521 621 -622 0
622 -624 0
623 -624 0
345 -624 0
624 -625 0
-183 -625 0
456 625 -626 0
626 -628 0
627 -628 0
343 -628 0
628 -629 0
104 -629 0
377 -630 0
245 -630 0
229 -631 0
-245 -631 0
630 631 -632 0
632 -633 0
303 -633 0
633 -634 0
305 -634 0
274 -634 0
634 -635 0
19 -635 0
-112 -636 0
245 -636 0
315 -637 0
636 -637 0
377 -637 0
637 -638 0
309 -638 0
638 -639 0
-19 -639 0
635 639 -640 0
37 -641 0
642 -643 0
-37 -643 0
641 643 -644 0
-13 -645 0
-14 -645 0
26 -645 0
28 -645 0
29 -645 0
40 -645 0
-43 -645 0
53 -645 0
55 -645 0
-74 -645 0
81 -645 0
-106 -645 0
-108 -645 0
-119 -645 0
124 -645 0
-139 -645 0
-142 -645 0
-199 -645 0
-202 -645 0
-216 -645 0
233 -645 0
239 -645 0
-242 -645 0
344 -646 0
299 -646 0
287 -646 0
378 -646 0
552 -647 0
640 -647 0
644 -647 0
339 -647 0
645 -647 0
646 -647 0
647 -648 0
-104 -648 0
649 -650 0
341 -650 0
650 -651 0
-195 -651 0
654 -656 0
655 -656 0
652 -657 0
656 -657 0
1 0
2 0
-3 0
4 0
5 0
-6 0
-7 0
8 0
9 0
-10 0
11 0
-12 0
-15 0
16 0
-17 0
18 0
20 0
-21 0
22 0
-23 0
-24 0
25 0
27 0
-30 0
-31 0
-32 0
33 0
-34 0
35 0
36 0
38 0
-39 0
-41 0
42 0
44 0
-45 0
-46 0
-47 0
-48 0
-49 0
50 0
51 0
-52 0
-54 0
56 0
-58 0
-59 0
-61 0
-62 0
63 0
-64 0
-66 0
67 0
68 0
69 0
-71 0
72 0
73 0
-75 0
-76 0
-78 0
79 0
-80 0
-82 0
-83 0
84 0
-85 0
86 0
-87 0
88 0
89 0
90 0
91 0
-92 0
-93 0
-94 0
95 0
96 0
97 0
98 0
-99 0
-100 0
101 0
-102 0
-103 0
-105 0
107 0
-109 0
-110 0
111 0
-113 0
114 0
115 0
-116 0
-117 0
-118 0
-121 0
-122 0
-126 0
127 0
128 0
129 0
130 0
131 0
-132 0
133 0
134 0
-135 0
137 0
-138 0
140 0
-141 0
144 0
145 0
147 0
-148 0
-149 0
150 0
151 0
-152 0
153 0
155 0
-156 0
-157 0
158 0
-159 0
-160 0
161 0
-162 0
-164 0
165 0
166 0
-167 0
-168 0
169 0
170 0
171 0
173 0
-174 0
-175 0
176 0
-177 0
178 0
-179 0
-180 0
181 0
-182 0
-184 0
185 0
186 0
-187 0
188 0
-189 0
190 0
-192 0
193 0
-194 0
197 0
-198 0
201 0
203 0
-204 0
205 0
206 0
-207 0
208 0
-209 0
210 0
-211 0
212 0
213 0
-214 0
-215 0
-217 0
218 0
219 0
220 0
-221 0
222 0
223 0
-224 0
-225 0
226 0
-227 0
-228 0
230 0
231 0
232 0
-234 0
-235 0
236 0
237 0
238 0
-240 0
-241 0
243 0
244 0
-246 0
-247 0
248 0
-249 0
-671 672 0
-669 670 0
-666 667 0
-657 658 0
-668 669 0
-393 394 0
-602 603 0
-392 394 0
-642 643 0
-388 389 527 0
104 648 0
-380 381 0
138 662 0
-378 379 400 410 416 432 457 467 620 646 0
-377 379 383 385 400 422 432 444 457 467 484 499 630 637 0
-665 666 0
-570 573 0
-233 376 384 399 421 431 443 466 522 526 553 576 610 645 0
-329 335 0
74 374 399 466 556 645 0
106 372 645 0
-43 273 312 421 427 443 489 504 576 579 583 601 610 0
-199 323 330 358 568 0
172 368 399 466 546 0
-619 620 0
-366 375 0
-361 362 0
-239 359 370 399 411 466 553 570 645 0
-381 396 0
-358 363 0
-356 365 394 461 0
-125 259 266 291 294 512 544 592 597 0
-355 356 0
-449 450 0
-362 363 0
-282 283 351 0
-317 318 0
-26 376 382 385 399 421 431 443 466 618 645 0
-339 347 380 394 401 441 476 479 494 509 564 608 647 0
-37 345 641 0
-598 599 0
14 343 645 0
-14 343 0
120 342 0
-284 290 0
-435 436 0
239 340 357 360 392 419 435 460 529 572 0
-290 298 317 0
229 340 377 386 0
-546 547 0
-371 373 0
-367 369 0
-106 340 364 372 392 448 460 516 532 537 0
-548 550 0
-81 376 382 399 421 431 443 466 522 525 553 576 610 645 0
-172 340 364 367 392 448 460 516 532 537 0
-560 561 0
-620 621 0
-363 365 433 523 0
-372 373 400 467 555 0
-530 531 0
-437 438 494 509 0
-459 463 0
-478 520 0
-476 477 0
81 340 388 0
-357 358 567 0
-74 340 366 392 448 460 516 532 539 0
-369 371 543 545 0
-487 488 0
-28 340 404 442 479 494 509 609 645 0
-376 380 0
-145 661 0
-411 420 0
-343 346 628 0
-439 440 0
-200 642 0
-338 339 0
-613 615 0
-462 463 0
-154 336 0
-354 355 0
-334 335 0
163 334 378 0
-333 334 0
-335 347 394 435 461 0
-346 347 0
-326 327 0
-635 640 0
-604 605 0
-279 280 0
-383 384 0
-288 289 0
196 267 0
40 257 260 603 0
-294 295 0
-370 371 0
-274 275 279 286 407 477 565 634 0
-277 278 0
-292 293 0
-553 554 0
-423 424 0
-336 339 0
-494 495 0
-612 613 0
-272 273 0
-589 590 0
-653 657 0
-511 512 0
-387 389 0
-495 496 0
-302 304 0
112 274 636 0
-112 271 274 276 308 448 516 0
-447 450 0
125 262 291 399 466 551 593 0
-318 319 0
-330 332 0
-488 489 0
-13 271 282 308 349 448 516 532 0
-280 281 0
-578 607 0
-340 347 0
-365 366 0
-270 272 311 423 426 445 577 611 0
26 340 386 0
-527 528 0
-29 252 297 404 582 587 645 0
-119 424 443 486 501 578 610 0
-628 629 0
-379 380 0
19 320 454 473 483 639 0
-163 329 378 412 0
-502 503 0
-557 559 0
-373 374 0
65 269 295 514 541 599 0
-429 430 0
-321 347 0
-480 481 0
-255 258 0
-484 485 0
-315 317 406 428 473 637 0
-489 493 0
-472 474 0
-268 269 0
-526 528 0
191 271 282 287 308 349 448 516 532 0
-276 277 0
199 327 331 362 370 399 409 412 466 553 574 645 0
43 301 318 404 429 492 507 580 587 645 0
-629 649 0
-353 354 0
-448 450 0
-195 348 0
-287 288 352 371 400 467 560 646 0
-483 484 487 499 502 0
29 253 421 443 576 584 610 0
-375 380 458 0
-259 263 0
-296 298 317 397 428 464 533 538 590 0
-260 261 0
-386 387 0
-486 496 0
-301 302 0
-309 310 316 638 0
-256 257 592 597 0
139 251 297 404 580 587 645 0
-77 271 299 308 421 425 443 576 586 601 610 0
-390 391 0
-500 501 0
-196 264 267 292 399 466 497 540 549 595 0
-40 255 260 297 404 591 645 0
-352 353 0
142 280 285 355 370 399 466 534 558 645 0
-257 258 0
-53 381 399 409 415 434 459 466 524 553 569 645 0
-421 423 485 500 0
-465 470 0
-263 264 485 488 0
154 338 443 480 610 0
-289 290 0
-391 394 435 461 0
-300 301 0
-444 445 0
-389 390 0
-496 497 0
233 340 390 527 0
-258 259 266 500 503 0
-242 322 324 330 357 0
-508 509 0
-427 430 0
-320 321 0
-253 254 0
-402 403 0
-623 624 0
-332 333 416 529 0
-65 265 293 399 466 498 540 549 596 0
-594 595 0
-142 271 278 308 350 448 516 534 0
-467 468 0
-191 287 0
-425 426 488 503 0
-139 251 253 421 443 576 583 610 0
-374 375 0
-252 254 0
-364 365 0
202 289 353 370 399 466 561 645 0
-587 588 0
-261 262 0
-368 369 0
136 344 0
-420 423 445 485 500 0
-229 377 618 631 0
-639 640 0
-306 307 0
-55 275 279 285 408 478 566 645 0
-504 508 0
-469 470 0
-264 265 0
-250 303 308 313 421 425 443 471 618 0
-285 286 0
-291 292 490 0
-644 647 0
-298 300 0
-539 557 0
77 299 588 0
-293 296 0
-499 500 0
-262 263 0
-468 469 0
-299 300 316 405 428 475 491 506 563 646 0
-442 447 0
-385 387 0
-143 340 398 448 465 516 532 537 543 545 0
-108 340 388 0
-304 306 0
-626 628 0
183 303 309 625 0
-360 361 0
-350 356 0
-586 589 0
-123 305 314 0
123 305 0
-216 325 414 0
-70 336 337 0
-305 306 310 313 422 426 444 471 484 487 499 502 619 634 0
119 340 404 439 495 510 606 645 0
-308 311 0
-310 311 0
-120 342 368 399 466 546 0
-659 660 0
-337 338 444 480 611 0
-311 312 0
-312 319 0
-529 530 0
-313 315 0
-327 328 0
-540 542 0
-634 635 0
-314 315 0
-316 317 0
-251 252 579 0
-319 320 0
-331 332 0
-491 492 0
-136 344 0
-265 270 0
-473 474 0
-254 272 311 426 488 503 602 0
-645 647 0
55 271 276 308 451 519 616 0
-323 328 0
37 345 643 0
-347 348 0
-477 478 0
242 324 359 370 399 409 466 553 569 645 0
-456 626 0
-509 510 0
-325 326 0
124 256 0
-637 638 0
-328 329 0
103 664 0
-394 395 0
-384 391 0
-497 498 0
-398 403 0
13 285 352 370 399 466 558 645 0
-404 406 476 564 0
-457 458 0
-399 401 0
-202 271 284 308 349 351 448 516 536 0
-614 615 0
-400 401 0
-401 402 0
143 402 469 547 0
-512 513 0
-403 406 0
-461 462 0
-405 406 0
-406 407 0
-407 408 0
-616 617 0
-408 452 0
-409 410 0
-410 411 0
-412 413 0
-413 414 0
-414 418 0
-415 416 567 571 0
-417 418 0
-183 309 456 0
-418 419 0
-419 420 0
-422 423 0
-424 440 0
-426 427 0
-538 539 0
-633 634 0
-431 433 458 0
-275 277 0
-603 604 0
-433 434 0
-434 437 0
-543 544 0
-436 437 0
-438 439 0
-345 346 379 393 400 449 624 0
-441 442 0
-443 445 0
-445 446 0
-562 564 0
-446 447 0
-450 451 0
-395 396 0
-503 504 0
-451 452 0
-452 453 0
-453 455 0
-454 455 0
-576 577 0
-458 459 0
-667 668 0
-460 461 0
-463 464 0
-577 578 0
-349 350 0
-464 465 0
53 340 395 412 415 436 462 530 0
-519 520 0
-466 468 0
-532 533 0
-266 268 0
-470 476 0
-528 529 0
-267 268 294 513 541 598 0
-471 472 0
-269 270 0
-474 476 490 505 0
-475 476 0
-479 482 0
-481 482 0
-482 485 500 0
-485 486 0
-549 550 0
-490 491 0
-324 326 331 360 413 571 0
-432 433 0
-643 644 0
-492 493 0
-493 494 0
-286 288 0
-608 609 0
-498 515 0
108 376 382 399 421 431 443 466 522 525 553 576 610 645 0
-501 511 0
-396 397 0
-505 506 0
-397 398 0
-506 507 0
-507 508 0
-510 511 0
49 671 0
-513 514 0
-514 515 0
-515 518 0
-516 518 615 0
-537 538 0
-517 518 0
-638 639 0
-124 255 256 261 297 404 590 593 645 0
-558 559 0
-632 633 0
-518 519 0
-575 577 611 0
-245 340 454 521 630 636 0
-520 521 0
-295 296 0
-521 622 0
-522 523 0
-523 524 0
250 314 0
-524 531 0
247 659 0
-525 526 0
-531 533 538 605 0
-533 535 0
-534 535 0
198 340 627 645 0
-535 536 0
-536 562 0
-542 543 0
-591 604 0
-544 552 0
-134 663 0
-545 548 0
-547 548 0
-550 551 0
-551 552 0
-552 554 647 0
-342 346 365 367 393 449 461 517 533 538 614 0
-554 555 0
-555 556 0
-556 557 0
-559 560 0
70 337 0
-561 562 0
-563 564 0
-564 565 0
-565 566 0
-566 617 0
-664 665 0
-567 568 0
-303 304 633 0
-568 575 0
-541 542 0
-569 570 0
-455 456 0
-571 572 0
-572 573 0
-573 574 0
-271 272 0
-574 575 0
-579 581 0
-580 581 0
-351 354 0
-581 582 0
-19 307 472 483 618 635 0
-582 585 0
-583 584 0
-584 585 0
-585 586 0
-588 589 0
146 341 0
-359 361 0
-590 591 0
-592 594 0
-593 594 0
-595 596 0
-596 600 0
-297 298 317 428 490 505 0
-597 598 0
-599 600 0
-600 602 0
-146 341 0
-601 602 0
-278 281 0
-605 606 0
-281 283 0
-606 607 0
-609 613 0
-382 383 0
-610 611 0
-611 612 0
-615 616 0
-617 619 0
245 621 631 0
-618 619 0
-621 622 0
-622 624 0
-624 625 0
-273 302 0
-625 626 0
-627 628 0
-416 417 0
-630 632 0
28 446 481 612 0
-631 632 0
-636 637 0
-307 321 0
-428 429 0
-640 647 0
-430 438 0
-322 323 0
-641 644 0
-646 647 0
-647 648 0
-649 650 0
-650 651 0
-440 441 0
195 651 0
-283 284 0
-607 608 0
-27 653 0
